
******************************************************************************
This program contains Ipopt, a library for large-scale nonlinear optimization.
 Ipopt is released as open source code under the Eclipse Public License (EPL).
         For more information visit http://projects.coin-or.org/Ipopt
******************************************************************************

This is Ipopt version 3.12.6, running with linear solver ma57.

Number of nonzeros in equality constraint Jacobian...:    11463
Number of nonzeros in inequality constraint Jacobian.:        0
Number of nonzeros in Lagrangian Hessian.............:     6332

Reallocating memory for MA57: lfact (1305400)
Reallocating memory for MA57: lfact (1554200)
Total number of variables............................:     1133
                     variables with only lower bounds:     1033
                variables with lower and upper bounds:      100
                     variables with only upper bounds:        0
Total number of equality constraints.................:     1034
Total number of inequality constraints...............:        0
        inequality constraints with only lower bounds:        0
   inequality constraints with lower and upper bounds:        0
        inequality constraints with only upper bounds:        0

iter    objective    inf_pr   inf_du lg(mu)  ||d||  lg(rg) alpha_du alpha_pr  ls
   0  9.9999900e-03 9.90e+00 7.08e-01  -1.0 0.00e+00    -  0.00e+00 0.00e+00   0
   1 -1.9810820e+00 1.50e-02 9.71e+01  -1.0 1.06e+00    -  1.02e-02 1.00e+00h  1
   2 -1.9010435e+00 5.57e-03 5.12e+01  -1.0 3.84e-01   2.0 1.00e+00 7.34e-01h  1
   3 -1.8013901e+00 2.68e-04 1.19e+02  -1.0 1.06e-01   2.4 8.87e-01 1.00e+00h  1
   4 -1.2509543e+00 1.06e-03 1.69e+02  -1.0 3.76e-01   1.9 8.48e-01 1.00e+00f  1
   5 -1.1054031e+00 1.85e-04 3.08e+01  -1.0 1.30e-01   2.4 1.00e+00 1.00e+00f  1
   6 -1.0863760e+00 1.73e-04 2.47e+04  -1.0 2.60e-01   1.9 1.00e+00 8.78e-02f  1
   7 -1.0280629e+00 1.06e-04 8.77e+02  -1.0 8.24e-02   2.3 1.00e+00 1.00e+00f  1
   8 -1.0147516e+00 1.00e-04 1.55e+05  -1.0 1.27e-01   1.8 1.00e+00 3.42e-01f  1
   9 -1.0042970e+00 5.26e-05 6.61e+02  -1.0 5.41e-02   2.3 1.00e+00 1.00e+00f  1
iter    objective    inf_pr   inf_du lg(mu)  ||d||  lg(rg) alpha_du alpha_pr  ls
  10 -1.0014077e+00 1.05e-04 4.48e+04  -1.0 9.75e-02   1.8 1.00e+00 8.86e-01f  1
  11 -1.0004456e+00 1.69e-05 3.80e+05  -1.0 2.90e-02   2.2 6.66e-01 1.00e+00f  1
  12 -1.0006533e+00 3.06e-05 9.65e+02  -1.0 5.74e-02   1.7 1.00e+00 1.00e+00f  1
  13 -1.0005889e+00 2.87e-06 3.35e+01  -1.0 1.61e-02   2.2 1.00e+00 1.00e+00f  1
  14 -1.0005436e+00 8.94e-06 1.35e+00  -1.0 2.74e-02   1.7 1.00e+00 1.00e+00f  1
  15 -1.0005411e+00 3.65e-08 3.41e-01  -1.7 1.49e-03   2.1 1.00e+00 1.00e+00h  1
  16 -1.0005350e+00 3.32e-07 2.11e-01  -1.7 4.82e-03   1.6 1.00e+00 1.00e+00f  1
  17 -1.0005348e+00 2.99e-08 2.63e-01  -2.5 1.39e-03   1.2 1.00e+00 1.00e+00h  1
  18 -1.0005368e+00 3.55e-07 2.32e-02  -2.5 4.76e-03   0.7 1.00e+00 1.00e+00h  1
  19 -1.0005487e+00 2.07e-09 4.41e-01  -3.8 6.71e-04   0.2 1.00e+00 1.00e+00h  1
iter    objective    inf_pr   inf_du lg(mu)  ||d||  lg(rg) alpha_du alpha_pr  ls
  20 -1.0008213e+00 3.15e-07 5.97e-02  -3.8 7.31e-03  -0.3 1.00e+00 1.00e+00h  1
  21 -1.0010254e+00 3.77e-07 5.93e-02  -3.8 7.63e-03  -0.7 1.00e+00 1.00e+00h  1
  22 -1.0011892e+00 3.34e-07 6.80e-03  -3.8 1.03e-02  -1.2 1.00e+00 1.00e+00h  1
  23 -1.0012291e+00 3.09e-08 5.94e-04  -3.8 2.77e-03  -0.8 1.00e+00 1.00e+00h  1
  24 -1.0054175e+00 1.98e-05 6.63e+02  -5.7 4.32e-02  -1.3 3.32e-01 1.00e+00h  1
  25 -1.0102975e+00 4.48e-06 4.44e+00  -5.7 3.74e-02   0.1 6.94e-01 1.00e+00h  1
  26 -1.0134106e+00 1.36e-06 5.32e-02  -5.7 1.75e-02   0.5 9.99e-01 1.00e+00h  1
  27 -1.0359737e+00 3.96e-05 8.32e-02  -5.7 7.94e-02   0.0 1.00e+00 1.00e+00h  1
  28 -1.0502279e+00 8.04e-06 9.09e-02  -5.7 3.34e-02   0.4 1.00e+00 1.00e+00h  1
  29 -1.1978895e+00 3.75e-04 1.84e-01  -5.7 1.89e-01  -0.0 7.48e-01 1.00e+00f  1
iter    objective    inf_pr   inf_du lg(mu)  ||d||  lg(rg) alpha_du alpha_pr  ls
  30 -1.2948738e+00 8.52e-05 1.76e-01  -5.7 7.40e-02   0.4 1.00e+00 1.00e+00h  1
  31 -1.8610121e+00 2.82e-03 1.66e-01  -5.7 3.75e-01  -0.1 4.25e-01 1.00e+00f  1
  32 -1.9992116e+00 1.58e-03 1.05e-01  -5.7 2.81e-01  -0.6 1.00e+00 1.00e+00h  1
  33 -1.9996311e+00 7.43e-06 2.73e-03  -5.7 1.74e-02  -1.1 8.69e-01 1.00e+00h  1
  34 -1.9996343e+00 2.57e-08 4.86e-05  -5.7 1.62e-03  -1.5 1.00e+00 1.00e+00h  1
  35 -1.9996343e+00 2.93e-11 4.76e-07  -5.7 4.81e-05  -2.0 1.00e+00 1.00e+00h  1
  36 -1.9996371e+00 1.69e-08 5.02e-06  -8.6 9.35e-04  -2.5 1.00e+00 1.00e+00h  1
  37 -1.9996371e+00 3.77e-13 6.02e-11  -8.6 4.34e-06    -  1.00e+00 1.00e+00h  1

Number of Iterations....: 37

                                   (scaled)                 (unscaled)
Objective...............:  -1.9996371199946792e+00   -1.9996371199946792e+00
Dual infeasibility......:   6.0169333715665040e-11    6.0169333715665040e-11
Constraint violation....:   3.7716878231730533e-13    3.7716878231730533e-13
Complementarity.........:   2.5059784085452712e-09    2.5059784085452712e-09
Overall NLP error.......:   2.5059784085452712e-09    2.5059784085452712e-09


Number of objective function evaluations             = 38
Number of objective gradient evaluations             = 38
Number of equality constraint evaluations            = 38
Number of inequality constraint evaluations          = 0
Number of equality constraint Jacobian evaluations   = 38
Number of inequality constraint Jacobian evaluations = 0
Number of Lagrangian Hessian evaluations             = 37
Total CPU secs in IPOPT (w/o function evaluations)   =      5.713
Total CPU secs in NLP function evaluations           =      0.073

EXIT: Optimal Solution Found.
Note: The following floating-point exceptions are signalling: IEEE_INVALID_FLAG IEEE_DIVIDE_BY_ZERO

************************ CUTEst statistics ************************


 Package used            :  IPOPT
 Problem                 :  DITTERT   
 # variables             =            1133
 # constraints           =            1034
 # objective functions   =        0.7700000E+02
 # objective gradients   =        0.3900000E+02
 # objective Hessians    =        0.3800000E+02
 # Hessian-vector prdct  =        0.0000000E+00
 # constraints functions =        0.7800000E+02
 # constraints gradients =        0.4000000E+02
 # constraints Hessians  =        0.3800000E+02
 Exit code               =               0
 Final f                 =  -0.1999637E+01
 Set up time             =            0.04 seconds
 Solve time              =           15.37 seconds


******************************************************************

System Time =       3.8440001011 s.
